# Solution for model count
# Objective value = 9
z#1 1
z#2 0
z#3 0
z#4 0
z#5 1
z#6 1
z#7 0
z#8 1
z#9 1
z#10 1
z#11 0
z#12 1
z#13 0
z#14 0
z#15 0
z#16 1
z#17 0
z#18 0
z#19 1
z#20 0
z#21 0
z#22 0
z#23 0
z#24 0
x#24 0
x#23 0
x#22 0
x#21 0
x#20 0
x#19 580
x#18 0
x#17 0
x#16 3528
x#15 0
x#14 0
x#13 0
x#12 561
x#11 0
x#10 286
x#9 259
x#8 2919
x#7 0
x#6 492
x#5 1100
x#4 0
x#3 0
x#2 0
x#1 275
